100 82,884 27,9967 4,7717
200 5951,7602 3373,81785 1288,5993
300 15274,1091 4774,04575 4,1119
400 1465,8691 584,208775 11,3729
500 4803,6004 1869,3165250000002 134,6095
600 198,578 56,355925 7,1543
700 3614,7857 1199,4832 215,1956
800 13644,6658 3578,6328750000002 5,9113
900 241,6544 105,80102500000001 44,5375
1000 14636,6001 5067,213775 601,0221
